147934
0,86,43,65,58,9,26,27,75,23,73,101,13,60,102,3,14,42,78,90,59,95,93,69,77,2,100,104,37,103,10,40,66,94,53,70,35,84,47,72,32,1,71,81,50,52,83,48,38,36,17,6,31,62,74,34,46,49,67,98,80,99,44,24,61,21,20,76,85,45,5,68,39,16,89,63,15,19,55,87,12,105,96,7,91,22,79,56,82,33,25,8,18,41,97,30,64,51,54,4,29,28,11,92,88,57,0